* #variable= 18 #constraint= 59
* fixed-vertex reduction with m=2, |B|=4
* normalized point-star case partition=[1]
+1 x_0_1 = 1 ;
+1 x_0_2 +1 x_0_3 = 1 ;
+1 x_0_2 = 1 ;
+1 x_0_1 +1 x_0_3 = 1 ;
+1 x_0_1 = 1 ;
+1 x_1_2 +1 x_1_3 = 1 ;
+1 x_0_1 +1 x_1_2 = 1 ;
+1 x_1_3 = 1 ;
+1 x_0_2 +1 x_1_2 = 1 ;
+1 x_2_3 = 1 ;
+1 x_0_2 = 1 ;
+1 x_1_2 +1 x_2_3 = 1 ;
+1 x_0_3 +1 x_1_3 = 1 ;
+1 x_2_3 = 1 ;
+1 x_0_3 +1 x_2_3 = 1 ;
+1 x_1_3 = 1 ;
+1 x_0_2 -1 y_0_1_2 >= 0 ;
+1 x_1_2 -1 y_0_1_2 >= 0 ;
+1 y_0_1_2 -1 x_0_2 -1 x_1_2 >= -1 ;
+1 x_0_3 -1 y_0_1_3 >= 0 ;
+1 x_1_3 -1 y_0_1_3 >= 0 ;
+1 y_0_1_3 -1 x_0_3 -1 x_1_3 >= -1 ;
+1 x_0_1 +1 y_0_1_2 +1 y_0_1_3 = 1 ;
+1 x_0_1 -1 y_0_2_1 >= 0 ;
+1 x_1_2 -1 y_0_2_1 >= 0 ;
+1 y_0_2_1 -1 x_0_1 -1 x_1_2 >= -1 ;
+1 x_0_3 -1 y_0_2_3 >= 0 ;
+1 x_2_3 -1 y_0_2_3 >= 0 ;
+1 y_0_2_3 -1 x_0_3 -1 x_2_3 >= -1 ;
+1 x_0_2 +1 y_0_2_1 +1 y_0_2_3 = 1 ;
+1 x_0_1 -1 y_0_3_1 >= 0 ;
+1 x_1_3 -1 y_0_3_1 >= 0 ;
+1 y_0_3_1 -1 x_0_1 -1 x_1_3 >= -1 ;
+1 x_0_2 -1 y_0_3_2 >= 0 ;
+1 x_2_3 -1 y_0_3_2 >= 0 ;
+1 y_0_3_2 -1 x_0_2 -1 x_2_3 >= -1 ;
+1 x_0_3 +1 y_0_3_1 +1 y_0_3_2 = 2 ;
+1 x_0_1 -1 y_1_2_0 >= 0 ;
+1 x_0_2 -1 y_1_2_0 >= 0 ;
+1 y_1_2_0 -1 x_0_1 -1 x_0_2 >= -1 ;
+1 x_1_3 -1 y_1_2_3 >= 0 ;
+1 x_2_3 -1 y_1_2_3 >= 0 ;
+1 y_1_2_3 -1 x_1_3 -1 x_2_3 >= -1 ;
+1 x_1_2 +1 y_1_2_0 +1 y_1_2_3 = 2 ;
+1 x_0_1 -1 y_1_3_0 >= 0 ;
+1 x_0_3 -1 y_1_3_0 >= 0 ;
+1 y_1_3_0 -1 x_0_1 -1 x_0_3 >= -1 ;
+1 x_1_2 -1 y_1_3_2 >= 0 ;
+1 x_2_3 -1 y_1_3_2 >= 0 ;
+1 y_1_3_2 -1 x_1_2 -1 x_2_3 >= -1 ;
+1 x_1_3 +1 y_1_3_0 +1 y_1_3_2 = 1 ;
+1 x_0_2 -1 y_2_3_0 >= 0 ;
+1 x_0_3 -1 y_2_3_0 >= 0 ;
+1 y_2_3_0 -1 x_0_2 -1 x_0_3 >= -1 ;
+1 x_1_2 -1 y_2_3_1 >= 0 ;
+1 x_1_3 -1 y_2_3_1 >= 0 ;
+1 y_2_3_1 -1 x_1_2 -1 x_1_3 >= -1 ;
+1 x_2_3 +1 y_2_3_0 +1 y_2_3_1 = 1 ;
+1 x_0_1 = 1 ;
